NAME : MM8_depots
COMMENT : Instance 8 in MD algorithm. Coordinates of depots and vhcl speeds given.
TYPE : TSP
DIMENSION : 6
EDGE_WEIGHT_TYPE : EUC
NODE_COORD_SECTION
201 26.9062 28.7498 1
202 26.9062 28.7498 1
203 76.5500 9.1113 1
204 76.5500 9.1113 1
205 18.8662 57.6209 1
206 18.8662 57.6209 1
EOF
